Problem:    NonCrossing
Rows:       238
Columns:    36 (36 integer, 36 binary)
Non-zeros:  558
Status:     INTEGER OPTIMAL
Objective:  TotalUtility = 177 (MAXimum)

   No.   Row name        Activity     Lower bound   Upper bound
------ ------------    ------------- ------------- -------------
     1 TotalUtility              177                             
     2 OneActuatorPerSensor[1]
                                   0                           1 
     3 OneActuatorPerSensor[2]
                                   0                           1 
     4 OneActuatorPerSensor[3]
                                   0                           1 
     5 OneActuatorPerSensor[4]
                                   1                           1 
     6 OneActuatorPerSensor[5]
                                   1                           1 
     7 OneActuatorPerSensor[6]
                                   1                           1 
     8 OneSensorPerActuator[1]
                                   1                           1 
     9 OneSensorPerActuator[2]
                                   1                           1 
    10 OneSensorPerActuator[3]
                                   1                           1 
    11 OneSensorPerActuator[4]
                                   0                           1 
    12 OneSensorPerActuator[5]
                                   0                           1 
    13 OneSensorPerActuator[6]
                                   0                           1 
    14 NonCrossing[1,2,2,1]
                                   0                           1 
    15 NonCrossing[1,2,3,1]
                                   0                           1 
    16 NonCrossing[1,2,4,1]
                                   1                           1 
    17 NonCrossing[1,2,5,1]
                                   0                           1 
    18 NonCrossing[1,2,6,1]
                                   0                           1 
    19 NonCrossing[1,3,2,1]
                                   0                           1 
    20 NonCrossing[1,3,2,2]
                                   0                           1 
    21 NonCrossing[1,3,3,1]
                                   0                           1 
    22 NonCrossing[1,3,3,2]
                                   0                           1 
    23 NonCrossing[1,3,4,1]
                                   1                           1 
    24 NonCrossing[1,3,4,2]
                                   0                           1 
    25 NonCrossing[1,3,5,1]
                                   0                           1 
    26 NonCrossing[1,3,5,2]
                                   1                           1 
    27 NonCrossing[1,3,6,1]
                                   0                           1 
    28 NonCrossing[1,3,6,2]
                                   0                           1 
    29 NonCrossing[1,4,2,1]
                                   0                           1 
    30 NonCrossing[1,4,2,2]
                                   0                           1 
    31 NonCrossing[1,4,2,3]
                                   0                           1 
    32 NonCrossing[1,4,3,1]
                                   0                           1 
    33 NonCrossing[1,4,3,2]
                                   0                           1 
    34 NonCrossing[1,4,3,3]
                                   0                           1 
    35 NonCrossing[1,4,4,1]
                                   1                           1 
    36 NonCrossing[1,4,4,2]
                                   0                           1 
    37 NonCrossing[1,4,4,3]
                                   0                           1 
    38 NonCrossing[1,4,5,1]
                                   0                           1 
    39 NonCrossing[1,4,5,2]
                                   1                           1 
    40 NonCrossing[1,4,5,3]
                                   0                           1 
    41 NonCrossing[1,4,6,1]
                                   0                           1 
    42 NonCrossing[1,4,6,2]
                                   0                           1 
    43 NonCrossing[1,4,6,3]
                                   1                           1 
    44 NonCrossing[1,5,2,1]
                                   0                           1 
    45 NonCrossing[1,5,2,2]
                                   0                           1 
    46 NonCrossing[1,5,2,3]
                                   0                           1 
    47 NonCrossing[1,5,2,4]
                                   0                           1 
    48 NonCrossing[1,5,3,1]
                                   0                           1 
    49 NonCrossing[1,5,3,2]
                                   0                           1 
    50 NonCrossing[1,5,3,3]
                                   0                           1 
    51 NonCrossing[1,5,3,4]
                                   0                           1 
    52 NonCrossing[1,5,4,1]
                                   1                           1 
    53 NonCrossing[1,5,4,2]
                                   0                           1 
    54 NonCrossing[1,5,4,3]
                                   0                           1 
    55 NonCrossing[1,5,4,4]
                                   0                           1 
    56 NonCrossing[1,5,5,1]
                                   0                           1 
    57 NonCrossing[1,5,5,2]
                                   1                           1 
    58 NonCrossing[1,5,5,3]
                                   0                           1 
    59 NonCrossing[1,5,5,4]
                                   0                           1 
    60 NonCrossing[1,5,6,1]
                                   0                           1 
    61 NonCrossing[1,5,6,2]
                                   0                           1 
    62 NonCrossing[1,5,6,3]
                                   1                           1 
    63 NonCrossing[1,5,6,4]
                                   0                           1 
    64 NonCrossing[1,6,2,1]
                                   0                           1 
    65 NonCrossing[1,6,2,2]
                                   0                           1 
    66 NonCrossing[1,6,2,3]
                                   0                           1 
    67 NonCrossing[1,6,2,4]
                                   0                           1 
    68 NonCrossing[1,6,2,5]
                                   0                           1 
    69 NonCrossing[1,6,3,1]
                                   0                           1 
    70 NonCrossing[1,6,3,2]
                                   0                           1 
    71 NonCrossing[1,6,3,3]
                                   0                           1 
    72 NonCrossing[1,6,3,4]
                                   0                           1 
    73 NonCrossing[1,6,3,5]
                                   0                           1 
    74 NonCrossing[1,6,4,1]
                                   1                           1 
    75 NonCrossing[1,6,4,2]
                                   0                           1 
    76 NonCrossing[1,6,4,3]
                                   0                           1 
    77 NonCrossing[1,6,4,4]
                                   0                           1 
    78 NonCrossing[1,6,4,5]
                                   0                           1 
    79 NonCrossing[1,6,5,1]
                                   0                           1 
    80 NonCrossing[1,6,5,2]
                                   1                           1 
    81 NonCrossing[1,6,5,3]
                                   0                           1 
    82 NonCrossing[1,6,5,4]
                                   0                           1 
    83 NonCrossing[1,6,5,5]
                                   0                           1 
    84 NonCrossing[1,6,6,1]
                                   0                           1 
    85 NonCrossing[1,6,6,2]
                                   0                           1 
    86 NonCrossing[1,6,6,3]
                                   1                           1 
    87 NonCrossing[1,6,6,4]
                                   0                           1 
    88 NonCrossing[1,6,6,5]
                                   0                           1 
    89 NonCrossing[2,2,3,1]
                                   0                           1 
    90 NonCrossing[2,2,4,1]
                                   1                           1 
    91 NonCrossing[2,2,5,1]
                                   0                           1 
    92 NonCrossing[2,2,6,1]
                                   0                           1 
    93 NonCrossing[2,3,3,1]
                                   0                           1 
    94 NonCrossing[2,3,3,2]
                                   0                           1 
    95 NonCrossing[2,3,4,1]
                                   1                           1 
    96 NonCrossing[2,3,4,2]
                                   0                           1 
    97 NonCrossing[2,3,5,1]
                                   0                           1 
    98 NonCrossing[2,3,5,2]
                                   1                           1 
    99 NonCrossing[2,3,6,1]
                                   0                           1 
   100 NonCrossing[2,3,6,2]
                                   0                           1 
   101 NonCrossing[2,4,3,1]
                                   0                           1 
   102 NonCrossing[2,4,3,2]
                                   0                           1 
   103 NonCrossing[2,4,3,3]
                                   0                           1 
   104 NonCrossing[2,4,4,1]
                                   1                           1 
   105 NonCrossing[2,4,4,2]
                                   0                           1 
   106 NonCrossing[2,4,4,3]
                                   0                           1 
   107 NonCrossing[2,4,5,1]
                                   0                           1 
   108 NonCrossing[2,4,5,2]
                                   1                           1 
   109 NonCrossing[2,4,5,3]
                                   0                           1 
   110 NonCrossing[2,4,6,1]
                                   0                           1 
   111 NonCrossing[2,4,6,2]
                                   0                           1 
   112 NonCrossing[2,4,6,3]
                                   1                           1 
   113 NonCrossing[2,5,3,1]
                                   0                           1 
   114 NonCrossing[2,5,3,2]
                                   0                           1 
   115 NonCrossing[2,5,3,3]
                                   0                           1 
   116 NonCrossing[2,5,3,4]
                                   0                           1 
   117 NonCrossing[2,5,4,1]
                                   1                           1 
   118 NonCrossing[2,5,4,2]
                                   0                           1 
   119 NonCrossing[2,5,4,3]
                                   0                           1 
   120 NonCrossing[2,5,4,4]
                                   0                           1 
   121 NonCrossing[2,5,5,1]
                                   0                           1 
   122 NonCrossing[2,5,5,2]
                                   1                           1 
   123 NonCrossing[2,5,5,3]
                                   0                           1 
   124 NonCrossing[2,5,5,4]
                                   0                           1 
   125 NonCrossing[2,5,6,1]
                                   0                           1 
   126 NonCrossing[2,5,6,2]
                                   0                           1 
   127 NonCrossing[2,5,6,3]
                                   1                           1 
   128 NonCrossing[2,5,6,4]
                                   0                           1 
   129 NonCrossing[2,6,3,1]
                                   0                           1 
   130 NonCrossing[2,6,3,2]
                                   0                           1 
   131 NonCrossing[2,6,3,3]
                                   0                           1 
   132 NonCrossing[2,6,3,4]
                                   0                           1 
   133 NonCrossing[2,6,3,5]
                                   0                           1 
   134 NonCrossing[2,6,4,1]
                                   1                           1 
   135 NonCrossing[2,6,4,2]
                                   0                           1 
   136 NonCrossing[2,6,4,3]
                                   0                           1 
   137 NonCrossing[2,6,4,4]
                                   0                           1 
   138 NonCrossing[2,6,4,5]
                                   0                           1 
   139 NonCrossing[2,6,5,1]
                                   0                           1 
   140 NonCrossing[2,6,5,2]
                                   1                           1 
   141 NonCrossing[2,6,5,3]
                                   0                           1 
   142 NonCrossing[2,6,5,4]
                                   0                           1 
   143 NonCrossing[2,6,5,5]
                                   0                           1 
   144 NonCrossing[2,6,6,1]
                                   0                           1 
   145 NonCrossing[2,6,6,2]
                                   0                           1 
   146 NonCrossing[2,6,6,3]
                                   1                           1 
   147 NonCrossing[2,6,6,4]
                                   0                           1 
   148 NonCrossing[2,6,6,5]
                                   0                           1 
   149 NonCrossing[3,2,4,1]
                                   1                           1 
   150 NonCrossing[3,2,5,1]
                                   0                           1 
   151 NonCrossing[3,2,6,1]
                                   0                           1 
   152 NonCrossing[3,3,4,1]
                                   1                           1 
   153 NonCrossing[3,3,4,2]
                                   0                           1 
   154 NonCrossing[3,3,5,1]
                                   0                           1 
   155 NonCrossing[3,3,5,2]
                                   1                           1 
   156 NonCrossing[3,3,6,1]
                                   0                           1 
   157 NonCrossing[3,3,6,2]
                                   0                           1 
   158 NonCrossing[3,4,4,1]
                                   1                           1 
   159 NonCrossing[3,4,4,2]
                                   0                           1 
   160 NonCrossing[3,4,4,3]
                                   0                           1 
   161 NonCrossing[3,4,5,1]
                                   0                           1 
   162 NonCrossing[3,4,5,2]
                                   1                           1 
   163 NonCrossing[3,4,5,3]
                                   0                           1 
   164 NonCrossing[3,4,6,1]
                                   0                           1 
   165 NonCrossing[3,4,6,2]
                                   0                           1 
   166 NonCrossing[3,4,6,3]
                                   1                           1 
   167 NonCrossing[3,5,4,1]
                                   1                           1 
   168 NonCrossing[3,5,4,2]
                                   0                           1 
   169 NonCrossing[3,5,4,3]
                                   0                           1 
   170 NonCrossing[3,5,4,4]
                                   0                           1 
   171 NonCrossing[3,5,5,1]
                                   0                           1 
   172 NonCrossing[3,5,5,2]
                                   1                           1 
   173 NonCrossing[3,5,5,3]
                                   0                           1 
   174 NonCrossing[3,5,5,4]
                                   0                           1 
   175 NonCrossing[3,5,6,1]
                                   0                           1 
   176 NonCrossing[3,5,6,2]
                                   0                           1 
   177 NonCrossing[3,5,6,3]
                                   1                           1 
   178 NonCrossing[3,5,6,4]
                                   0                           1 
   179 NonCrossing[3,6,4,1]
                                   1                           1 
   180 NonCrossing[3,6,4,2]
                                   0                           1 
   181 NonCrossing[3,6,4,3]
                                   0                           1 
   182 NonCrossing[3,6,4,4]
                                   0                           1 
   183 NonCrossing[3,6,4,5]
                                   0                           1 
   184 NonCrossing[3,6,5,1]
                                   0                           1 
   185 NonCrossing[3,6,5,2]
                                   1                           1 
   186 NonCrossing[3,6,5,3]
                                   0                           1 
   187 NonCrossing[3,6,5,4]
                                   0                           1 
   188 NonCrossing[3,6,5,5]
                                   0                           1 
   189 NonCrossing[3,6,6,1]
                                   0                           1 
   190 NonCrossing[3,6,6,2]
                                   0                           1 
   191 NonCrossing[3,6,6,3]
                                   1                           1 
   192 NonCrossing[3,6,6,4]
                                   0                           1 
   193 NonCrossing[3,6,6,5]
                                   0                           1 
   194 NonCrossing[4,2,5,1]
                                   0                           1 
   195 NonCrossing[4,2,6,1]
                                   0                           1 
   196 NonCrossing[4,3,5,1]
                                   0                           1 
   197 NonCrossing[4,3,5,2]
                                   1                           1 
   198 NonCrossing[4,3,6,1]
                                   0                           1 
   199 NonCrossing[4,3,6,2]
                                   0                           1 
   200 NonCrossing[4,4,5,1]
                                   0                           1 
   201 NonCrossing[4,4,5,2]
                                   1                           1 
   202 NonCrossing[4,4,5,3]
                                   0                           1 
   203 NonCrossing[4,4,6,1]
                                   0                           1 
   204 NonCrossing[4,4,6,2]
                                   0                           1 
   205 NonCrossing[4,4,6,3]
                                   1                           1 
   206 NonCrossing[4,5,5,1]
                                   0                           1 
   207 NonCrossing[4,5,5,2]
                                   1                           1 
   208 NonCrossing[4,5,5,3]
                                   0                           1 
   209 NonCrossing[4,5,5,4]
                                   0                           1 
   210 NonCrossing[4,5,6,1]
                                   0                           1 
   211 NonCrossing[4,5,6,2]
                                   0                           1 
   212 NonCrossing[4,5,6,3]
                                   1                           1 
   213 NonCrossing[4,5,6,4]
                                   0                           1 
   214 NonCrossing[4,6,5,1]
                                   0                           1 
   215 NonCrossing[4,6,5,2]
                                   1                           1 
   216 NonCrossing[4,6,5,3]
                                   0                           1 
   217 NonCrossing[4,6,5,4]
                                   0                           1 
   218 NonCrossing[4,6,5,5]
                                   0                           1 
   219 NonCrossing[4,6,6,1]
                                   0                           1 
   220 NonCrossing[4,6,6,2]
                                   0                           1 
   221 NonCrossing[4,6,6,3]
                                   1                           1 
   222 NonCrossing[4,6,6,4]
                                   0                           1 
   223 NonCrossing[4,6,6,5]
                                   0                           1 
   224 NonCrossing[5,2,6,1]
                                   1                           1 
   225 NonCrossing[5,3,6,1]
                                   0                           1 
   226 NonCrossing[5,3,6,2]
                                   0                           1 
   227 NonCrossing[5,4,6,1]
                                   0                           1 
   228 NonCrossing[5,4,6,2]
                                   0                           1 
   229 NonCrossing[5,4,6,3]
                                   1                           1 
   230 NonCrossing[5,5,6,1]
                                   0                           1 
   231 NonCrossing[5,5,6,2]
                                   0                           1 
   232 NonCrossing[5,5,6,3]
                                   1                           1 
   233 NonCrossing[5,5,6,4]
                                   0                           1 
   234 NonCrossing[5,6,6,1]
                                   0                           1 
   235 NonCrossing[5,6,6,2]
                                   0                           1 
   236 NonCrossing[5,6,6,3]
                                   1                           1 
   237 NonCrossing[5,6,6,4]
                                   0                           1 
   238 NonCrossing[5,6,6,5]
                                   0                           1 

   No. Column name       Activity     Lower bound   Upper bound
------ ------------    ------------- ------------- -------------
     1 x[1,1]       *              0             0             1 
     2 x[1,2]       *              0             0             1 
     3 x[1,3]       *              0             0             1 
     4 x[1,4]       *              0             0             1 
     5 x[1,5]       *              0             0             1 
     6 x[1,6]       *              0             0             1 
     7 x[2,1]       *              0             0             1 
     8 x[2,2]       *              0             0             1 
     9 x[2,3]       *              0             0             1 
    10 x[2,4]       *              0             0             1 
    11 x[2,5]       *              0             0             1 
    12 x[2,6]       *              0             0             1 
    13 x[3,1]       *              0             0             1 
    14 x[3,2]       *              0             0             1 
    15 x[3,3]       *              0             0             1 
    16 x[3,4]       *              0             0             1 
    17 x[3,5]       *              0             0             1 
    18 x[3,6]       *              0             0             1 
    19 x[4,1]       *              1             0             1 
    20 x[4,2]       *              0             0             1 
    21 x[4,3]       *              0             0             1 
    22 x[4,4]       *              0             0             1 
    23 x[4,5]       *              0             0             1 
    24 x[4,6]       *              0             0             1 
    25 x[5,1]       *              0             0             1 
    26 x[5,2]       *              1             0             1 
    27 x[5,3]       *              0             0             1 
    28 x[5,4]       *              0             0             1 
    29 x[5,5]       *              0             0             1 
    30 x[5,6]       *              0             0             1 
    31 x[6,1]       *              0             0             1 
    32 x[6,2]       *              0             0             1 
    33 x[6,3]       *              1             0             1 
    34 x[6,4]       *              0             0             1 
    35 x[6,5]       *              0             0             1 
    36 x[6,6]       *              0             0             1 

Integer feasibility conditions:

KKT.PE: max.abs.err = 0.00e+000 on row 0
        max.rel.err = 0.00e+000 on row 0
        High quality

KKT.PB: max.abs.err = 0.00e+000 on row 0
        max.rel.err = 0.00e+000 on row 0
        High quality

End of output
